70
1 0 6
2 0 1
2 1 5
3 0 3
3 1 6
3 2 1
4 0 6
4 1 1
4 2 6
4 3 1
5 0 6
5 1 2
5 2 2
5 3 4
5 4 1
6 0 1
6 1 2
6 2 4
6 3 6
6 4 4
6 5 1
7 0 4
7 1 2
7 2 3
7 3 4
7 4 4
7 5 2
7 6 4
8 0 5
8 1 5
8 2 4
8 3 4
8 4 4
8 5 5
8 6 4
8 7 6
9 0 1
9 1 1
9 2 3
9 3 4
9 4 5
9 5 1
9 6 6
9 7 6
9 8 1
10 0 2
10 1 3
10 2 6
10 3 3
10 4 6
10 5 1
10 6 5
10 7 6
10 8 1
10 9 3
11 0 2
11 1 5
11 2 6
11 3 2
11 4 2
11 5 2
11 6 1
11 7 1
11 8 5
11 9 5
11 10 1
12 0 6
12 1 1
12 2 5
12 3 2
12 4 6
12 5 1
12 6 2
12 7 2
12 8 2
12 9 5
12 10 2
12 11 4
13 0 3
13 1 2
13 2 5
13 3 5
13 4 2
13 5 6
13 6 3
13 7 3
13 8 1
13 9 3
13 10 6
13 11 4
13 12 3
14 0 2
14 1 3
14 2 5
14 3 6
14 4 1
14 5 3
14 6 1
14 7 4
14 8 5
14 9 4
14 10 1
14 11 3
14 12 2
14 13 4
15 0 6
15 1 1
15 2 6
15 3 1
15 4 6
15 5 1
15 6 1
15 7 5
15 8 2
15 9 4
15 10 3
15 11 6
15 12 5
15 13 5
15 14 6
16 0 3
16 1 2
16 2 2
16 3 4
16 4 5
16 5 5
16 6 2
16 7 3
16 8 2
16 9 5
16 10 3
16 11 6
16 12 1
16 13 6
16 14 3
16 15 6
17 0 2
17 1 6
17 2 3
17 3 5
17 4 5
17 5 2
17 6 5
17 7 1
17 8 3
17 9 1
17 10 6
17 11 3
17 12 2
17 13 3
17 14 4
17 15 6
17 16 6
18 0 4
18 1 5
18 2 1
18 3 1
18 4 6
18 5 4
18 6 4
18 7 5
18 8 6
18 9 6
18 10 4
18 11 2
18 12 5
18 13 6
18 14 6
18 15 3
18 16 3
18 17 3
19 0 4
19 1 4
19 2 5
19 3 3
19 4 5
19 5 1
19 6 4
19 7 3
19 8 2
19 9 2
19 10 6
19 11 1
19 12 1
19 13 6
19 14 2
19 15 5
19 16 1
19 17 4
19 18 4
20 0 2
20 1 2
20 2 1
20 3 5
20 4 2
20 5 1
20 6 4
20 7 1
20 8 6
20 9 2
20 10 6
20 11 6
20 12 5
20 13 6
20 14 2
20 15 5
20 16 5
20 17 3
20 18 6
20 19 6
21 0 3
21 1 4
21 2 1
21 3 4
21 4 2
21 5 2
21 6 4
21 7 5
21 8 4
21 9 3
21 10 1
21 11 6
21 12 4
21 13 3
21 14 1
21 15 3
21 16 2
21 17 1
21 18 1
21 19 4
21 20 4
22 0 5
22 1 5
22 2 3
22 3 1
22 4 2
22 5 5
22 6 2
22 7 6
22 8 6
22 9 6
22 10 2
22 11 1
22 12 1
22 13 1
22 14 4
22 15 1
22 16 5
22 17 4
22 18 1
22 19 4
22 20 1
22 21 5
23 0 4
23 1 4
23 2 6
23 3 4
23 4 4
23 5 6
23 6 6
23 7 5
23 8 2
23 9 3
23 10 2
23 11 3
23 12 3
23 13 2
23 14 4
23 15 6
23 16 6
23 17 6
23 18 5
23 19 4
23 20 1
23 21 1
23 22 3
24 0 2
24 1 6
24 2 4
24 3 4
24 4 2
24 5 1
24 6 4
24 7 4
24 8 2
24 9 1
24 10 1
24 11 2
24 12 3
24 13 6
24 14 1
24 15 3
24 16 6
24 17 3
24 18 3
24 19 5
24 20 5
24 21 3
24 22 5
24 23 5
25 0 2
25 1 4
25 2 3
25 3 6
25 4 6
25 5 3
25 6 3
25 7 1
25 8 4
25 9 2
25 10 5
25 11 3
25 12 1
25 13 6
25 14 5
25 15 3
25 16 1
25 17 1
25 18 2
25 19 6
25 20 3
25 21 6
25 22 3
25 23 6
25 24 1
26 0 3
26 1 6
26 2 4
26 3 3
26 4 6
26 5 3
26 6 1
26 7 3
26 8 1
26 9 2
26 10 2
26 11 5
26 12 6
26 13 3
26 14 1
26 15 2
26 16 3
26 17 6
26 18 6
26 19 3
26 20 4
26 21 1
26 22 1
26 23 3
26 24 5
26 25 2
27 0 1
27 1 4
27 2 2
27 3 1
27 4 6
27 5 4
27 6 5
27 7 6
27 8 2
27 9 3
27 10 2
27 11 4
27 12 6
27 13 3
27 14 6
27 15 5
27 16 5
27 17 1
27 18 5
27 19 5
27 20 1
27 21 3
27 22 2
27 23 5
27 24 3
27 25 3
27 26 4
28 0 3
28 1 3
28 2 5
28 3 4
28 4 1
28 5 5
28 6 1
28 7 1
28 8 1
28 9 1
28 10 4
28 11 5
28 12 4
28 13 4
28 14 3
28 15 5
28 16 2
28 17 3
28 18 5
28 19 2
28 20 6
28 21 5
28 22 2
28 23 5
28 24 2
28 25 4
28 26 4
28 27 5
29 0 4
29 1 3
29 2 4
29 3 3
29 4 1
29 5 5
29 6 3
29 7 2
29 8 4
29 9 4
29 10 6
29 11 4
29 12 4
29 13 1
29 14 2
29 15 2
29 16 3
29 17 1
29 18 1
29 19 6
29 20 2
29 21 3
29 22 5
29 23 2
29 24 3
29 25 3
29 26 5
29 27 2
29 28 1
30 0 4
30 1 1
30 2 1
30 3 6
30 4 4
30 5 1
30 6 3
30 7 4
30 8 2
30 9 6
30 10 1
30 11 3
30 12 5
30 13 2
30 14 2
30 15 4
30 16 2
30 17 4
30 18 3
30 19 2
30 20 2
30 21 6
30 22 2
30 23 5
30 24 6
30 25 2
30 26 3
30 27 1
30 28 6
30 29 2
31 0 1
31 1 3
31 2 2
31 3 1
31 4 4
31 5 3
31 6 3
31 7 6
31 8 1
31 9 4
31 10 2
31 11 6
31 12 3
31 13 4
31 14 5
31 15 1
31 16 2
31 17 1
31 18 6
31 19 5
31 20 4
31 21 6
31 22 6
31 23 6
31 24 5
31 25 2
31 26 6
31 27 4
31 28 1
31 29 3
31 30 3
32 0 2
32 1 2
32 2 5
32 3 1
32 4 1
32 5 1
32 6 6
32 7 4
32 8 6
32 9 5
32 10 6
32 11 5
32 12 3
32 13 3
32 14 1
32 15 3
32 16 4
32 17 3
32 18 3
32 19 6
32 20 5
32 21 6
32 22 5
32 23 6
32 24 6
32 25 4
32 26 5
32 27 6
32 28 3
32 29 1
32 30 5
32 31 6
33 0 4
33 1 2
33 2 1
33 3 3
33 4 3
33 5 5
33 6 2
33 7 4
33 8 4
33 9 4
33 10 3
33 11 3
33 12 2
33 13 3
33 14 6
33 15 1
33 16 2
33 17 3
33 18 5
33 19 3
33 20 1
33 21 5
33 22 5
33 23 1
33 24 6
33 25 4
33 26 2
33 27 1
33 28 4
33 29 1
33 30 5
33 31 6
33 32 4
34 0 6
34 1 3
34 2 1
34 3 1
34 4 2
34 5 6
34 6 3
34 7 3
34 8 5
34 9 1
34 10 3
34 11 4
34 12 5
34 13 5
34 14 1
34 15 5
34 16 3
34 17 6
34 18 5
34 19 2
34 20 1
34 21 1
34 22 6
34 23 3
34 24 4
34 25 2
34 26 1
34 27 2
34 28 1
34 29 3
34 30 5
34 31 3
34 32 2
34 33 5
35 0 2
35 1 5
35 2 5
35 3 6
35 4 2
35 5 6
35 6 5
35 7 1
35 8 3
35 9 2
35 10 3
35 11 2
35 12 3
35 13 2
35 14 1
35 15 2
35 16 1
35 17 2
35 18 5
35 19 4
35 20 6
35 21 3
35 22 2
35 23 5
35 24 1
35 25 5
35 26 2
35 27 2
35 28 6
35 29 6
35 30 4
35 31 1
35 32 4
35 33 6
35 34 2
36 0 1
36 1 3
36 2 5
36 3 5
36 4 2
36 5 6
36 6 6
36 7 5
36 8 4
36 9 6
36 10 3
36 11 3
36 12 5
36 13 5
36 14 2
36 15 2
36 16 3
36 17 3
36 18 5
36 19 6
36 20 3
36 21 4
36 22 1
36 23 3
36 24 6
36 25 1
36 26 3
36 27 4
36 28 4
36 29 1
36 30 4
36 31 1
36 32 4
36 33 5
36 34 4
36 35 5
37 0 1
37 1 5
37 2 5
37 3 3
37 4 4
37 5 3
37 6 5
37 7 6
37 8 3
37 9 4
37 10 3
37 11 6
37 12 5
37 13 1
37 14 5
37 15 3
37 16 6
37 17 3
37 18 3
37 19 6
37 20 5
37 21 2
37 22 3
37 23 5
37 24 4
37 25 6
37 26 5
37 27 4
37 28 1
37 29 4
37 30 4
37 31 4
37 32 5
37 33 2
37 34 1
37 35 1
37 36 4
38 0 2
38 1 3
38 2 5
38 3 6
38 4 6
38 5 4
38 6 1
38 7 4
38 8 1
38 9 2
38 10 3
38 11 3
38 12 3
38 13 6
38 14 3
38 15 5
38 16 3
38 17 4
38 18 3
38 19 5
38 20 1
38 21 4
38 22 2
38 23 1
38 24 5
38 25 6
38 26 6
38 27 4
38 28 4
38 29 1
38 30 5
38 31 1
38 32 5
38 33 2
38 34 6
38 35 4
38 36 6
38 37 1
39 0 4
39 1 4
39 2 2
39 3 4
39 4 4
39 5 2
39 6 2
39 7 1
39 8 6
39 9 5
39 10 2
39 11 1
39 12 5
39 13 2
39 14 6
39 15 3
39 16 6
39 17 6
39 18 5
39 19 1
39 20 2
39 21 3
39 22 4
39 23 1
39 24 1
39 25 1
39 26 3
39 27 3
39 28 1
39 29 6
39 30 5
39 31 3
39 32 1
39 33 3
39 34 4
39 35 3
39 36 1
39 37 4
39 38 4
40 0 1
40 1 6
40 2 3
40 3 5
40 4 4
40 5 4
40 6 6
40 7 3
40 8 3
40 9 4
40 10 4
40 11 5
40 12 3
40 13 2
40 14 5
40 15 3
40 16 5
40 17 5
40 18 5
40 19 6
40 20 4
40 21 3
40 22 6
40 23 1
40 24 6
40 25 4
40 26 3
40 27 1
40 28 3
40 29 4
40 30 5
40 31 4
40 32 6
40 33 6
40 34 5
40 35 5
40 36 5
40 37 6
40 38 2
40 39 2
41 0 1
41 1 4
41 2 1
41 3 4
41 4 4
41 5 5
41 6 3
41 7 1
41 8 1
41 9 4
41 10 2
41 11 3
41 12 3
41 13 5
41 14 6
41 15 1
41 16 6
41 17 1
41 18 1
41 19 2
41 20 5
41 21 3
41 22 6
41 23 1
41 24 5
41 25 4
41 26 2
41 27 1
41 28 2
41 29 4
41 30 2
41 31 6
41 32 6
41 33 3
41 34 4
41 35 5
41 36 2
41 37 4
41 38 1
41 39 6
41 40 2
42 0 3
42 1 1
42 2 2
42 3 3
42 4 1
42 5 3
42 6 5
42 7 4
42 8 5
42 9 4
42 10 4
42 11 3
42 12 1
42 13 2
42 14 5
42 15 1
42 16 3
42 17 1
42 18 6
42 19 4
42 20 3
42 21 2
42 22 4
42 23 5
42 24 1
42 25 6
42 26 3
42 27 5
42 28 5
42 29 1
42 30 2
42 31 3
42 32 2
42 33 6
42 34 3
42 35 2
42 36 6
42 37 6
42 38 5
42 39 1
42 40 2
42 41 5
43 0 1
43 1 3
43 2 3
43 3 2
43 4 6
43 5 6
43 6 1
43 7 2
43 8 5
43 9 2
43 10 6
43 11 6
43 12 2
43 13 6
43 14 6
43 15 4
43 16 6
43 17 4
43 18 1
43 19 5
43 20 1
43 21 4
43 22 4
43 23 2
43 24 4
43 25 3
43 26 1
43 27 1
43 28 5
43 29 3
43 30 6
43 31 6
43 32 2
43 33 3
43 34 4
43 35 1
43 36 1
43 37 1
43 38 5
43 39 2
43 40 1
43 41 2
43 42 4
44 0 1
44 1 4
44 2 1
44 3 5
44 4 5
44 5 5
44 6 1
44 7 6
44 8 6
44 9 3
44 10 5
44 11 1
44 12 3
44 13 4
44 14 5
44 15 1
44 16 2
44 17 2
44 18 6
44 19 4
44 20 2
44 21 6
44 22 2
44 23 4
44 24 5
44 25 4
44 26 4
44 27 4
44 28 5
44 29 1
44 30 2
44 31 6
44 32 5
44 33 3
44 34 2
44 35 2
44 36 1
44 37 1
44 38 3
44 39 1
44 40 5
44 41 5
44 42 5
44 43 3
45 0 1
45 1 1
45 2 4
45 3 5
45 4 5
45 5 6
45 6 2
45 7 1
45 8 5
45 9 4
45 10 6
45 11 5
45 12 1
45 13 6
45 14 4
45 15 6
45 16 6
45 17 3
45 18 4
45 19 1
45 20 5
45 21 2
45 22 2
45 23 4
45 24 5
45 25 5
45 26 1
45 27 1
45 28 2
45 29 3
45 30 6
45 31 4
45 32 5
45 33 6
45 34 6
45 35 5
45 36 5
45 37 1
45 38 6
45 39 5
45 40 2
45 41 3
45 42 3
45 43 1
45 44 6
46 0 4
46 1 6
46 2 2
46 3 3
46 4 1
46 5 5
46 6 1
46 7 6
46 8 3
46 9 3
46 10 3
46 11 3
46 12 5
46 13 6
46 14 3
46 15 5
46 16 1
46 17 2
46 18 4
46 19 1
46 20 3
46 21 4
46 22 6
46 23 4
46 24 5
46 25 3
46 26 6
46 27 5
46 28 1
46 29 1
46 30 3
46 31 4
46 32 4
46 33 2
46 34 6
46 35 4
46 36 6
46 37 4
46 38 4
46 39 2
46 40 1
46 41 6
46 42 6
46 43 4
46 44 1
46 45 6
47 0 2
47 1 2
47 2 1
47 3 6
47 4 5
47 5 4
47 6 3
47 7 5
47 8 1
47 9 4
47 10 5
47 11 6
47 12 6
47 13 1
47 14 4
47 15 3
47 16 2
47 17 2
47 18 5
47 19 6
47 20 1
47 21 2
47 22 2
47 23 4
47 24 6
47 25 6
47 26 6
47 27 2
47 28 4
47 29 2
47 30 5
47 31 6
47 32 5
47 33 5
47 34 3
47 35 3
47 36 2
47 37 2
47 38 4
47 39 2
47 40 4
47 41 2
47 42 4
47 43 4
47 44 6
47 45 6
47 46 3
48 0 3
48 1 6
48 2 5
48 3 6
48 4 1
48 5 4
48 6 5
48 7 2
48 8 6
48 9 1
48 10 6
48 11 1
48 12 3
48 13 6
48 14 2
48 15 1
48 16 1
48 17 1
48 18 5
48 19 2
48 20 2
48 21 5
48 22 1
48 23 2
48 24 1
48 25 4
48 26 4
48 27 5
48 28 1
48 29 2
48 30 6
48 31 5
48 32 4
48 33 2
48 34 5
48 35 3
48 36 5
48 37 5
48 38 6
48 39 1
48 40 1
48 41 3
48 42 2
48 43 1
48 44 2
48 45 4
48 46 5
48 47 2
49 0 2
49 1 3
49 2 5
49 3 1
49 4 1
49 5 3
49 6 3
49 7 2
49 8 4
49 9 3
49 10 4
49 11 4
49 12 4
49 13 4
49 14 2
49 15 3
49 16 5
49 17 1
49 18 6
49 19 1
49 20 1
49 21 1
49 22 4
49 23 3
49 24 1
49 25 1
49 26 3
49 27 5
49 28 6
49 29 3
49 30 3
49 31 1
49 32 2
49 33 1
49 34 3
49 35 6
49 36 2
49 37 2
49 38 2
49 39 6
49 40 2
49 41 1
49 42 5
49 43 2
49 44 6
49 45 2
49 46 4
49 47 5
49 48 3
50 0 2
50 1 5
50 2 4
50 3 1
50 4 5
50 5 6
50 6 3
50 7 4
50 8 6
50 9 3
50 10 4
50 11 3
50 12 2
50 13 6
50 14 4
50 15 4
50 16 4
50 17 2
50 18 4
50 19 2
50 20 2
50 21 5
50 22 4
50 23 4
50 24 2
50 25 2
50 26 3
50 27 1
50 28 5
50 29 2
50 30 4
50 31 6
50 32 3
50 33 3
50 34 5
50 35 2
50 36 6
50 37 2
50 38 1
50 39 1
50 40 5
50 41 4
50 42 3
50 43 5
50 44 3
50 45 2
50 46 3
50 47 1
50 48 1
50 49 6
51 0 5
51 1 3
51 2 3
51 3 4
51 4 4
51 5 1
51 6 5
51 7 4
51 8 5
51 9 2
51 10 2
51 11 6
51 12 1
51 13 1
51 14 3
51 15 2
51 16 5
51 17 6
51 18 4
51 19 6
51 20 3
51 21 4
51 22 6
51 23 6
51 24 5
51 25 5
51 26 3
51 27 4
51 28 4
51 29 4
51 30 2
51 31 2
51 32 4
51 33 2
51 34 1
51 35 3
51 36 5
51 37 1
51 38 3
51 39 5
51 40 6
51 41 2
51 42 5
51 43 3
51 44 2
51 45 5
51 46 3
51 47 5
51 48 6
51 49 6
51 50 1
52 0 5
52 1 4
52 2 2
52 3 1
52 4 1
52 5 3
52 6 1
52 7 1
52 8 2
52 9 6
52 10 1
52 11 2
52 12 3
52 13 4
52 14 2
52 15 3
52 16 2
52 17 1
52 18 6
52 19 1
52 20 1
52 21 2
52 22 3
52 23 3
52 24 1
52 25 5
52 26 3
52 27 2
52 28 1
52 29 6
52 30 3
52 31 1
52 32 1
52 33 2
52 34 5
52 35 6
52 36 2
52 37 1
52 38 3
52 39 5
52 40 6
52 41 3
52 42 5
52 43 6
52 44 6
52 45 1
52 46 3
52 47 1
52 48 5
52 49 6
52 50 2
52 51 4
53 0 1
53 1 3
53 2 3
53 3 3
53 4 6
53 5 6
53 6 5
53 7 5
53 8 1
53 9 1
53 10 6
53 11 5
53 12 2
53 13 3
53 14 1
53 15 5
53 16 2
53 17 1
53 18 6
53 19 4
53 20 5
53 21 2
53 22 3
53 23 6
53 24 3
53 25 4
53 26 3
53 27 2
53 28 6
53 29 2
53 30 4
53 31 1
53 32 6
53 33 1
53 34 5
53 35 2
53 36 3
53 37 3
53 38 3
53 39 4
53 40 6
53 41 1
53 42 2
53 43 3
53 44 4
53 45 2
53 46 5
53 47 4
53 48 3
53 49 1
53 50 3
53 51 6
53 52 6
54 0 3
54 1 5
54 2 6
54 3 3
54 4 1
54 5 3
54 6 2
54 7 2
54 8 3
54 9 6
54 10 3
54 11 3
54 12 6
54 13 5
54 14 4
54 15 4
54 16 1
54 17 6
54 18 1
54 19 4
54 20 1
54 21 2
54 22 3
54 23 1
54 24 5
54 25 3
54 26 3
54 27 1
54 28 1
54 29 2
54 30 3
54 31 6
54 32 4
54 33 4
54 34 5
54 35 4
54 36 6
54 37 5
54 38 1
54 39 2
54 40 4
54 41 5
54 42 1
54 43 5
54 44 3
54 45 3
54 46 2
54 47 4
54 48 3
54 49 4
54 50 6
54 51 1
54 52 2
54 53 2
55 0 2
55 1 6
55 2 2
55 3 5
55 4 5
55 5 3
55 6 4
55 7 2
55 8 4
55 9 3
55 10 3
55 11 4
55 12 2
55 13 5
55 14 4
55 15 2
55 16 3
55 17 4
55 18 2
55 19 3
55 20 4
55 21 2
55 22 5
55 23 2
55 24 3
55 25 2
55 26 5
55 27 1
55 28 5
55 29 4
55 30 6
55 31 1
55 32 4
55 33 3
55 34 4
55 35 3
55 36 2
55 37 4
55 38 2
55 39 2
55 40 4
55 41 3
55 42 5
55 43 4
55 44 3
55 45 6
55 46 5
55 47 4
55 48 3
55 49 1
55 50 1
55 51 1
55 52 4
55 53 6
55 54 1
56 0 4
56 1 3
56 2 4
56 3 3
56 4 2
56 5 1
56 6 3
56 7 6
56 8 3
56 9 1
56 10 4
56 11 6
56 12 2
56 13 2
56 14 3
56 15 4
56 16 6
56 17 1
56 18 4
56 19 3
56 20 6
56 21 6
56 22 1
56 23 6
56 24 5
56 25 4
56 26 3
56 27 3
56 28 5
56 29 4
56 30 2
56 31 2
56 32 4
56 33 1
56 34 6
56 35 1
56 36 5
56 37 2
56 38 5
56 39 3
56 40 2
56 41 4
56 42 3
56 43 3
56 44 3
56 45 2
56 46 6
56 47 4
56 48 3
56 49 6
56 50 4
56 51 3
56 52 5
56 53 2
56 54 1
56 55 5
57 0 6
57 1 2
57 2 1
57 3 1
57 4 3
57 5 4
57 6 2
57 7 6
57 8 4
57 9 3
57 10 4
57 11 6
57 12 1
57 13 4
57 14 2
57 15 5
57 16 4
57 17 3
57 18 5
57 19 4
57 20 4
57 21 1
57 22 5
57 23 1
57 24 3
57 25 5
57 26 2
57 27 1
57 28 5
57 29 2
57 30 4
57 31 4
57 32 4
57 33 4
57 34 4
57 35 6
57 36 1
57 37 4
57 38 5
57 39 2
57 40 4
57 41 1
57 42 2
57 43 2
57 44 5
57 45 3
57 46 5
57 47 3
57 48 3
57 49 4
57 50 5
57 51 4
57 52 2
57 53 4
57 54 2
57 55 2
57 56 1
58 0 6
58 1 5
58 2 1
58 3 6
58 4 2
58 5 3
58 6 3
58 7 4
58 8 1
58 9 5
58 10 5
58 11 4
58 12 5
58 13 1
58 14 3
58 15 6
58 16 4
58 17 6
58 18 5
58 19 5
58 20 2
58 21 3
58 22 5
58 23 3
58 24 2
58 25 1
58 26 1
58 27 1
58 28 3
58 29 1
58 30 4
58 31 5
58 32 2
58 33 5
58 34 1
58 35 1
58 36 6
58 37 2
58 38 1
58 39 1
58 40 3
58 41 1
58 42 6
58 43 4
58 44 6
58 45 5
58 46 5
58 47 4
58 48 5
58 49 6
58 50 6
58 51 1
58 52 4
58 53 5
58 54 2
58 55 1
58 56 4
58 57 3
59 0 1
59 1 6
59 2 4
59 3 5
59 4 6
59 5 4
59 6 1
59 7 2
59 8 6
59 9 1
59 10 1
59 11 2
59 12 4
59 13 2
59 14 2
59 15 5
59 16 1
59 17 3
59 18 3
59 19 6
59 20 6
59 21 3
59 22 2
59 23 2
59 24 4
59 25 3
59 26 3
59 27 3
59 28 6
59 29 4
59 30 3
59 31 1
59 32 3
59 33 5
59 34 3
59 35 3
59 36 5
59 37 2
59 38 4
59 39 5
59 40 3
59 41 1
59 42 4
59 43 1
59 44 1
59 45 2
59 46 1
59 47 2
59 48 2
59 49 4
59 50 4
59 51 6
59 52 5
59 53 1
59 54 3
59 55 4
59 56 2
59 57 6
59 58 1
60 0 3
60 1 6
60 2 3
60 3 1
60 4 1
60 5 4
60 6 3
60 7 4
60 8 3
60 9 6
60 10 5
60 11 4
60 12 4
60 13 2
60 14 2
60 15 4
60 16 4
60 17 2
60 18 1
60 19 2
60 20 6
60 21 1
60 22 5
60 23 6
60 24 6
60 25 2
60 26 5
60 27 5
60 28 5
60 29 4
60 30 1
60 31 2
60 32 4
60 33 6
60 34 1
60 35 6
60 36 3
60 37 6
60 38 3
60 39 4
60 40 3
60 41 6
60 42 6
60 43 6
60 44 4
60 45 5
60 46 5
60 47 1
60 48 2
60 49 4
60 50 6
60 51 6
60 52 1
60 53 5
60 54 2
60 55 3
60 56 2
60 57 2
60 58 1
60 59 4
61 0 5
61 1 2
61 2 3
61 3 5
61 4 6
61 5 3
61 6 6
61 7 5
61 8 2
61 9 4
61 10 4
61 11 3
61 12 6
61 13 6
61 14 6
61 15 1
61 16 2
61 17 1
61 18 6
61 19 5
61 20 2
61 21 3
61 22 2
61 23 4
61 24 3
61 25 1
61 26 2
61 27 5
61 28 4
61 29 4
61 30 2
61 31 6
61 32 2
61 33 3
61 34 6
61 35 5
61 36 2
61 37 5
61 38 3
61 39 1
61 40 3
61 41 4
61 42 4
61 43 3
61 44 4
61 45 1
61 46 2
61 47 4
61 48 1
61 49 5
61 50 5
61 51 2
61 52 4
61 53 3
61 54 3
61 55 5
61 56 1
61 57 3
61 58 6
61 59 2
61 60 5
62 0 4
62 1 6
62 2 4
62 3 5
62 4 1
62 5 3
62 6 6
62 7 1
62 8 4
62 9 6
62 10 6
62 11 3
62 12 1
62 13 1
62 14 2
62 15 5
62 16 2
62 17 3
62 18 2
62 19 3
62 20 1
62 21 6
62 22 5
62 23 2
62 24 1
62 25 2
62 26 5
62 27 6
62 28 3
62 29 3
62 30 5
62 31 6
62 32 6
62 33 1
62 34 5
62 35 4
62 36 3
62 37 4
62 38 6
62 39 5
62 40 5
62 41 3
62 42 4
62 43 3
62 44 4
62 45 5
62 46 2
62 47 1
62 48 5
62 49 6
62 50 4
62 51 3
62 52 3
62 53 1
62 54 6
62 55 1
62 56 6
62 57 1
62 58 1
62 59 5
62 60 1
62 61 6
63 0 6
63 1 5
63 2 2
63 3 2
63 4 3
63 5 2
63 6 6
63 7 1
63 8 1
63 9 2
63 10 1
63 11 3
63 12 4
63 13 1
63 14 1
63 15 2
63 16 2
63 17 6
63 18 5
63 19 4
63 20 5
63 21 4
63 22 6
63 23 6
63 24 2
63 25 6
63 26 1
63 27 4
63 28 3
63 29 6
63 30 4
63 31 4
63 32 6
63 33 2
63 34 2
63 35 6
63 36 5
63 37 1
63 38 3
63 39 3
63 40 1
63 41 5
63 42 6
63 43 4
63 44 1
63 45 3
63 46 1
63 47 5
63 48 6
63 49 4
63 50 5
63 51 1
63 52 5
63 53 3
63 54 3
63 55 6
63 56 3
63 57 1
63 58 3
63 59 5
63 60 5
63 61 4
63 62 2
64 0 4
64 1 4
64 2 1
64 3 3
64 4 5
64 5 2
64 6 1
64 7 1
64 8 4
64 9 4
64 10 3
64 11 3
64 12 2
64 13 5
64 14 1
64 15 1
64 16 2
64 17 1
64 18 3
64 19 5
64 20 5
64 21 2
64 22 3
64 23 1
64 24 1
64 25 6
64 26 5
64 27 3
64 28 3
64 29 2
64 30 3
64 31 2
64 32 3
64 33 6
64 34 5
64 35 2
64 36 5
64 37 5
64 38 6
64 39 6
64 40 3
64 41 1
64 42 6
64 43 1
64 44 4
64 45 6
64 46 4
64 47 5
64 48 5
64 49 1
64 50 4
64 51 4
64 52 6
64 53 1
64 54 3
64 55 2
64 56 3
64 57 3
64 58 1
64 59 1
64 60 1
64 61 5
64 62 5
64 63 6
65 0 3
65 1 6
65 2 6
65 3 5
65 4 3
65 5 6
65 6 5
65 7 6
65 8 4
65 9 1
65 10 6
65 11 2
65 12 6
65 13 2
65 14 6
65 15 1
65 16 1
65 17 6
65 18 3
65 19 1
65 20 6
65 21 6
65 22 6
65 23 1
65 24 1
65 25 5
65 26 4
65 27 6
65 28 5
65 29 1
65 30 3
65 31 2
65 32 3
65 33 5
65 34 3
65 35 6
65 36 1
65 37 4
65 38 2
65 39 1
65 40 2
65 41 3
65 42 5
65 43 3
65 44 1
65 45 5
65 46 5
65 47 3
65 48 4
65 49 6
65 50 4
65 51 3
65 52 4
65 53 3
65 54 2
65 55 2
65 56 4
65 57 2
65 58 2
65 59 5
65 60 4
65 61 5
65 62 5
65 63 5
65 64 5
66 0 6
66 1 1
66 2 1
66 3 2
66 4 1
66 5 3
66 6 1
66 7 4
66 8 5
66 9 6
66 10 6
66 11 3
66 12 4
66 13 1
66 14 3
66 15 3
66 16 4
66 17 3
66 18 6
66 19 2
66 20 4
66 21 6
66 22 5
66 23 2
66 24 6
66 25 6
66 26 3
66 27 1
66 28 2
66 29 1
66 30 2
66 31 1
66 32 5
66 33 1
66 34 6
66 35 5
66 36 2
66 37 3
66 38 2
66 39 1
66 40 4
66 41 6
66 42 2
66 43 4
66 44 1
66 45 5
66 46 4
66 47 3
66 48 3
66 49 1
66 50 3
66 51 3
66 52 4
66 53 1
66 54 5
66 55 2
66 56 1
66 57 5
66 58 1
66 59 2
66 60 4
66 61 5
66 62 2
66 63 2
66 64 6
66 65 2
67 0 5
67 1 5
67 2 6
67 3 6
67 4 6
67 5 3
67 6 3
67 7 1
67 8 6
67 9 2
67 10 6
67 11 6
67 12 3
67 13 5
67 14 4
67 15 1
67 16 4
67 17 1
67 18 3
67 19 4
67 20 2
67 21 4
67 22 6
67 23 1
67 24 6
67 25 6
67 26 1
67 27 3
67 28 2
67 29 2
67 30 3
67 31 1
67 32 6
67 33 4
67 34 2
67 35 3
67 36 1
67 37 1
67 38 1
67 39 3
67 40 3
67 41 5
67 42 2
67 43 2
67 44 6
67 45 5
67 46 4
67 47 6
67 48 5
67 49 1
67 50 1
67 51 6
67 52 4
67 53 2
67 54 2
67 55 2
67 56 1
67 57 5
67 58 3
67 59 1
67 60 1
67 61 2
67 62 4
67 63 3
67 64 6
67 65 1
67 66 3
68 0 2
68 1 2
68 2 6
68 3 1
68 4 4
68 5 2
68 6 1
68 7 3
68 8 6
68 9 6
68 10 4
68 11 6
68 12 1
68 13 2
68 14 6
68 15 5
68 16 3
68 17 3
68 18 3
68 19 4
68 20 6
68 21 2
68 22 1
68 23 1
68 24 6
68 25 4
68 26 3
68 27 6
68 28 6
68 29 4
68 30 1
68 31 4
68 32 1
68 33 1
68 34 5
68 35 5
68 36 6
68 37 2
68 38 1
68 39 3
68 40 4
68 41 3
68 42 5
68 43 5
68 44 3
68 45 1
68 46 6
68 47 5
68 48 1
68 49 6
68 50 1
68 51 1
68 52 3
68 53 4
68 54 1
68 55 1
68 56 5
68 57 6
68 58 3
68 59 6
68 60 2
68 61 4
68 62 2
68 63 2
68 64 5
68 65 3
68 66 2
68 67 3
69 0 2
69 1 1
69 2 5
69 3 1
69 4 5
69 5 3
69 6 5
69 7 4
69 8 3
69 9 5
69 10 6
69 11 3
69 12 6
69 13 6
69 14 4
69 15 4
69 16 6
69 17 6
69 18 3
69 19 2
69 20 1
69 21 3
69 22 2
69 23 3
69 24 5
69 25 3
69 26 2
69 27 1
69 28 3
69 29 5
69 30 5
69 31 4
69 32 3
69 33 4
69 34 6
69 35 4
69 36 3
69 37 6
69 38 1
69 39 3
69 40 2
69 41 3
69 42 6
69 43 6
69 44 1
69 45 6
69 46 5
69 47 1
69 48 5
69 49 5
69 50 6
69 51 6
69 52 3
69 53 1
69 54 2
69 55 4
69 56 2
69 57 4
69 58 6
69 59 5
69 60 4
69 61 5
69 62 4
69 63 5
69 64 2
69 65 2
69 66 4
69 67 5
69 68 5
